%int: n; % Número de días
%int: m; % Número de clientes
%array[1..n, 1..m] of int: demand; % Demanda diaria por cliente y día
%array[1..3] of int: costs; % Costos de producción (N, H, T)
%array[1..3] of int: capacities; % Capacidad diaria (N, H, T)
%array[1..m] of int: Ps; % Pago individual por cliente por MW
%float: min_demand_percentage = 0.50; % Porcentaje mínimo de demanda a cubrir
%float: hydro_max_percentage = 0.80; % Porcentaje máximo de capacidad para hidroeléctrica
%int: hydro_max_consecutive_days = 1; % Días consecutivos máximos a ese porcentaje


% Número de días
n = 5;

% Número de clientes
m = 4;

% Demanda diaria por cliente y día (suponiendo una semana y 4 clientes)
demand = [| 650,  750, 800, 900 
          | 630,  770, 810, 910
          | 620, 780,  820, 915
          | 610,  790, 830, 920
          | 600,  700, 840, 935
          |];



% Costos de producción (Nuclear, Hidroeléctrica, Térmica)
costs = [55, 25, 35]; 

% Capacidad diaria (Nuclear, Hidroeléctrica, Térmica)
capacities = [1110, 320, 630];

% Pago individual por cliente por MW (4 clientes)
Ps = [73, 53, 51, 55]; 

% Porcentaje mínimo de demanda a cubrir
min_demand_percentage = 0.50;

% Porcentaje máximo de capacidad para hidroeléctrica
hydro_max_percentage = 0.80;

% Días consecutivos máximos a ese porcentaje
hydro_max_consecutive_days = 1;

